language ESSENCE' 1.0
letting shiftRequirements = [[12, 1, 5, 10], [9, 1, 5, 13], [10, 1, 5, 12], [6, 1, 5, 16], [11, 1, 5, 11], [13, 2, 4, 9], [13, 2, 4, 9]]
letting numberOfWeeks = 28
letting s_min = 3
letting s_max = 4
